Problem:    
Rows:       256
Columns:    89 (72 integer, 72 binary)
Non-zeros:  800
Status:     INTEGER OPTIMAL
Objective:  value = 45.10735 (MINimum)

   No.   Row name        Activity     Lower bound   Upper bound
------ ------------    ------------- ------------- -------------
     1 r.5                   1045.11             0               
     2 r.6                  -986.924      -995.391               
     3 r.7                   45.1073             0               
     4 r.8                    18.773      -988.201               
     5 r.9                   1045.11             0               
     6 r.10                 -991.533      -994.796               
     7 r.11                  45.1073             0               
     8 r.12                  26.2323      -985.774               
     9 r.13                  45.1073             0               
    10 r.14                  26.2323      -993.072               
    11 r.15                  1045.11             0               
    12 r.16                 -973.768        -984.8               
    13 r.17                  45.1073             0               
    14 r.18                  11.0326      -996.469               
    15 r.19                  1045.11             0               
    16 r.20                 -988.967      -991.151               
    17 r.21                  1045.11             0               
    18 r.22                 -981.227      -994.303               
    19 r.23                  45.1073             0               
    20 r.24                 -986.113      -988.296               
    21 r.25                  45.1073             0               
    22 r.26                  2.18315      -997.287               
    23 r.27                  1045.11             0               
    24 r.28                 -997.817      -997.817               
    25 r.29                  1045.11             0               
    26 r.30                 -954.893      -973.666               
    27 r.31                  45.1073             0               
    28 r.32                  45.1073      -940.177               
    29 r.33                  45.1073             0               
    30 r.34                  45.1073        -990.2               
    31 r.35                  1045.11             0               
    32 r.36                 -954.893      -981.125               
    33 r.37                        1             1             = 
    34 r.38                        1             1             = 
    35 r.39                        1             1             = 
    36 r.40                        1             1             = 
    37 r.41                        1             1             = 
    38 r.42                        1             1             = 
    39 r.43                        1             1             = 
    40 r.44                        1             1             = 
    41 r.45                        2             2               
    42 r.46                       -2         -1001               
    43 r.47                 -4.60865      -994.796               
    44 r.48                     1000             2               
    45 r.49                    -1000         -1001               
    46 r.50                  2007.46      -985.774               
    47 r.51                     1001             2               
    48 r.52                    -1001         -1001               
    49 r.53                  2013.16      -993.072               
    50 r.54                     1001             2               
    51 r.55                    -1001         -1001               
    52 r.56                  2007.46        -984.8               
    53 r.57                     1001             2               
    54 r.58                    -1001         -1001               
    55 r.59                  1997.96      -996.469               
    56 r.60                     1001             2               
    57 r.61                    -1001         -1001               
    58 r.62                  1992.26      -991.151               
    59 r.63                        2             2               
    60 r.64                       -2         -1001               
    61 r.65                 -994.303      -994.303               
    62 r.66                     1000             2               
    63 r.67                    -1000         -1001               
    64 r.68                  995.114      -988.296               
    65 r.69                 -989.107      -995.391               
    66 r.70                  16.5899      -988.201               
    67 r.71                 -989.107      -995.391               
    68 r.72                  16.5899      -988.201               
    69 r.73                 -967.969      -973.666               
    70 r.74                  32.0313      -940.177               
    71 r.75                 -973.666      -973.666               
    72 r.76                  26.3343      -940.177               
    73 r.77                     1001             2               
    74 r.78                    -1001         -1001               
    75 r.79                  2032.03        -990.2               
    76 r.80                     1001             2               
    77 r.81                    -1001         -1001               
    78 r.82                  2026.33      -981.125               
    79 r.83                        2             2               
    80 r.84                       -2         -1001               
    81 r.85                  4.60865       4.60865               
    82 r.86                     1000             2               
    83 r.87                    -1000         -1001               
    84 r.88                  1992.54       11.7991               
    85 r.89                     1001             2               
    86 r.90                    -1001         -1001               
    87 r.91                  2017.76      -993.072               
    88 r.92                     1001             2               
    89 r.93                    -1001         -1001               
    90 r.94                     2000        -984.8               
    91 r.95                     1001             2               
    92 r.96                    -1001         -1001               
    93 r.97                  2002.57      -996.469               
    94 r.98                     1001             2               
    95 r.99                    -1001         -1001               
    96 r.100                  1984.8      -991.151               
    97 r.101                       2             2               
    98 r.102                      -2         -1001               
    99 r.103                -989.694      -994.303               
   100 r.104                    1000             2               
   101 r.105                   -1000         -1001               
   102 r.106                 987.655      -988.296               
   103 r.107                -993.716      -994.796               
   104 r.108                 24.0492      -985.774               
   105 r.109                -993.716      -994.796               
   106 r.110                 24.0492      -985.774               
   107 r.111                       2             2               
   108 r.112                      -2         -1001               
   109 r.113                 -963.36      -973.666               
   110 r.114                    1000             2               
   111 r.115                   -1000         -1001               
   112 r.116                 2018.88      -940.177               
   113 r.117                   36.64        -990.2               
   114 r.118                 -963.36      -981.125               
   115 r.119                  18.875        -990.2               
   116 r.120                -981.125      -981.125               
   117 r.121                    1001             2               
   118 r.122                   -1001         -1001               
   119 r.123                 1986.84       4.60865               
   120 r.124                    1001             2               
   121 r.125                   -1001         -1001               
   122 r.126                 1992.54       11.7991               
   123 r.127                    1001             2               
   124 r.128                   -1001         -1001               
   125 r.129                 1982.24       5.20382               
   126 r.130                    1001             2               
   127 r.131                   -1001         -1001               
   128 r.132                    2000       14.2265               
   129 r.133                 15.1997      -993.072               
   130 r.134                  -984.8        -984.8               
   131 r.135                 15.1997      -993.072               
   132 r.136                  -984.8        -984.8               
   133 r.137                    1001             2               
   134 r.138                   -1001         -1001               
   135 r.139                 1992.54      -994.303               
   136 r.140                    1001             2               
   137 r.141                   -1001         -1001               
   138 r.142                 987.655      -988.296               
   139 r.143                 24.0492      -993.072               
   140 r.144                -975.951        -984.8               
   141 r.145                 24.0492      -993.072               
   142 r.146                -975.951        -984.8               
   143 r.147                    1001             2               
   144 r.148                   -1001         -1001               
   145 r.149                 2018.88      -973.666               
   146 r.150                    1001             2               
   147 r.151                   -1001         -1001               
   148 r.152                 2018.88      -940.177               
   149 r.153                  18.875        -990.2               
   150 r.154                -981.125      -981.125               
   151 r.155                  18.875        -990.2               
   152 r.156                -981.125      -981.125               
   153 r.157                    1001             2               
   154 r.158                   -1001         -1001               
   155 r.159                 2002.04       4.60865               
   156 r.160                    1001             2               
   157 r.161                   -1001         -1001               
   158 r.162                 2007.74       11.7991               
   159 r.163                    1001             2               
   160 r.164                   -1001         -1001               
   161 r.165                 1997.43       5.20382               
   162 r.166                    1001             2               
   163 r.167                   -1001         -1001               
   164 r.168                  2015.2       14.2265               
   165 r.169                    1001             2               
   166 r.170                   -1001         -1001               
   167 r.171                 2007.74      -994.303               
   168 r.172                    1001             2               
   169 r.173                   -1001         -1001               
   170 r.174                 1002.85      -988.296               
   171 r.175                 8.84945      -996.469               
   172 r.176                -991.151      -991.151               
   173 r.177                 8.84945      -996.469               
   174 r.178                -991.151      -991.151               
   175 r.179                    1001             2               
   176 r.180                   -1001         -1001               
   177 r.181                 2034.07      -973.666               
   178 r.182                    1001             2               
   179 r.183                   -1001         -1001               
   180 r.184                 2034.07      -940.177               
   181 r.185                 34.0747        -990.2               
   182 r.186                -965.925      -981.125               
   183 r.187                 34.0747        -990.2               
   184 r.188                -965.925      -981.125               
   185 r.189                       2             2               
   186 r.190                      -2         -1001               
   187 r.191                 994.303       4.60865               
   188 r.192                    1000             2               
   189 r.193                   -1000         -1001               
   190 r.194                 3004.89       11.7991               
   191 r.195                       2             2               
   192 r.196                      -2         -1001               
   193 r.197                 989.694       5.20382               
   194 r.198                    1000             2               
   195 r.199                   -1000         -1001               
   196 r.200                 3012.34       14.2265               
   197 r.201                    1001             2               
   198 r.202                   -1001         -1001               
   199 r.203                 2007.46        6.9285               
   200 r.204                    1001             2               
   201 r.205                   -1001         -1001               
   202 r.206                 3012.34       15.1997               
   203 r.207                    1001             2               
   204 r.208                   -1001         -1001               
   205 r.209                 1992.26        3.5309               
   206 r.210                    1001             2               
   207 r.211                   -1001         -1001               
   208 r.212                 2997.15       8.84945               
   209 r.213                 -983.41      -994.303               
   210 r.214                -988.296      -988.296               
   211 r.215                 -983.41      -994.303               
   212 r.216                -988.296      -988.296               
   213 r.217                -973.666      -973.666               
   214 r.218                 26.3343      -940.177               
   215 r.219                   31.22      -973.666               
   216 r.220                 1031.22      -940.177               
   217 r.221                 26.3343        -990.2               
   218 r.222                -973.666      -981.125               
   219 r.223                 1031.22        -990.2               
   220 r.224                   31.22      -981.125               
   221 r.225                       2             2               
   222 r.226                      -2         -1001               
   223 r.227                  963.36       5.20382               
   224 r.228                    1000             2               
   225 r.229                   -1000         -1001               
   226 r.230                 1981.12       14.2265               
   227 r.231                    1001             2               
   228 r.232                   -1001         -1001               
   229 r.233                 1981.12        6.9285               
   230 r.234                    1001             2               
   231 r.235                   -1001         -1001               
   232 r.236                 1981.12       15.1997               
   233 r.237                    1001             2               
   234 r.238                   -1001         -1001               
   235 r.239                 1965.93        3.5309               
   236 r.240                    1001             2               
   237 r.241                   -1001         -1001               
   238 r.242                 1965.93       8.84945               
   239 r.243                    1001             2               
   240 r.244                   -1001         -1001               
   241 r.245                    2000        -990.2               
   242 r.246                    1001             2               
   243 r.247                   -1001         -1001               
   244 r.248                    2000      -981.125               
   245 r.249                    1001             2               
   246 r.250                   -1001         -1001               
   247 r.251                 1967.97       4.60865               
   248 r.252                    1001             2               
   249 r.253                   -1001         -1001               
   250 r.254                 1973.67       11.7991               
   251 r.255                    1001             2               
   252 r.256                   -1001         -1001               
   253 r.257                    2000       26.3343               
   254 r.258                    1001             2               
   255 r.259                   -1001         -1001               
   256 r.260                    2000       59.8229               

   No. Column name       Activity     Lower bound   Upper bound
------ ------------    ------------- ------------- -------------
     1 tt                    45.1073             0               
     2 s_1_1        *              1             0             1 
     3 t_1_1                 32.0313             0               
     4 s_1_7        *              1             0             1 
     5 s_2_1        *              0             0             1 
     6 t_2_1                 26.3343             0               
     7 s_2_7        *              0             0             1 
     8 s_1_2        *              1             0             1 
     9 t_1_2                   36.64             0               
    10 s_1_8        *              0             0             1 
    11 s_2_2        *              0             0             1 
    12 t_2_2                  18.875             0               
    13 s_2_8        *              1             0             1 
    14 s_1_3        *              0             0             1 
    15 t_1_3                  18.875             0               
    16 s_2_3        *              1             0             1 
    17 t_2_3                  18.875             0               
    18 s_1_4        *              0             0             1 
    19 t_1_4                 34.0747             0               
    20 s_2_4        *              1             0             1 
    21 t_2_4                 34.0747             0               
    22 s_1_5        *              1             0             1 
    23 t_1_5                 26.3343             0               
    24 s_2_5        *              0             0             1 
    25 t_2_5                 1031.22             0               
    26 s_1_6        *              0             0             1 
    27 t_1_6                 42.9242             0               
    28 s_2_6        *              1             0             1 
    29 t_2_6                 42.9242             0               
    30 t_1_7                       0             0               
    31 t_2_7                       0             0               
    32 t_1_8                       0             0               
    33 t_2_8                       0             0               
    34 r_1_1_2      *              0             0             1 
    35 u_1_1_2      *              0             0             1 
    36 r_2_1_2      *              1             0             1 
    37 u_2_1_2      *              0             0             1 
    38 r_1_1_3      *              1             0             1 
    39 u_1_1_3      *              0             0             1 
    40 r_2_1_3      *              1             0             1 
    41 u_2_1_3      *              0             0             1 
    42 r_1_1_4      *              1             0             1 
    43 u_1_1_4      *              0             0             1 
    44 r_2_1_4      *              1             0             1 
    45 u_2_1_4      *              0             0             1 
    46 r_1_1_5      *              0             0             1 
    47 u_1_1_5      *              1             0             1 
    48 r_2_1_5      *              1             0             1 
    49 u_2_1_5      *              0             0             1 
    50 r_1_1_8      *              1             0             1 
    51 u_1_1_8      *              0             0             1 
    52 r_2_1_8      *              1             0             1 
    53 u_2_1_8      *              0             0             1 
    54 r_1_2_3      *              1             0             1 
    55 u_1_2_3      *              0             0             1 
    56 r_2_2_3      *              1             0             1 
    57 u_2_2_3      *              0             0             1 
    58 r_1_2_4      *              1             0             1 
    59 u_1_2_4      *              0             0             1 
    60 r_2_2_4      *              1             0             1 
    61 u_2_2_4      *              0             0             1 
    62 r_1_2_5      *              0             0             1 
    63 u_1_2_5      *              1             0             1 
    64 r_2_2_5      *              1             0             1 
    65 u_2_2_5      *              0             0             1 
    66 r_1_2_7      *              0             0             1 
    67 u_1_2_7      *              1             0             1 
    68 r_2_2_7      *              1             0             1 
    69 u_2_2_7      *              0             0             1 
    70 r_1_3_5      *              1             0             1 
    71 u_1_3_5      *              0             0             1 
    72 r_2_3_5      *              1             0             1 
    73 u_2_3_5      *              0             0             1 
    74 r_1_3_7      *              1             0             1 
    75 u_1_3_7      *              0             0             1 
    76 r_2_3_7      *              1             0             1 
    77 u_2_3_7      *              0             0             1 
    78 r_1_4_5      *              1             0             1 
    79 u_1_4_5      *              0             0             1 
    80 r_2_4_5      *              1             0             1 
    81 u_2_4_5      *              0             0             1 
    82 r_1_4_7      *              1             0             1 
    83 u_1_4_7      *              0             0             1 
    84 r_2_4_7      *              1             0             1 
    85 u_2_4_7      *              0             0             1 
    86 r_1_7_8      *              1             0             1 
    87 u_1_7_8      *              0             0             1 
    88 r_2_7_8      *              1             0             1 
    89 u_2_7_8      *              0             0             1 

Integer feasibility conditions:

KKT.PE: max.abs.err = 2.27e-13 on row 6
        max.rel.err = 1.10e-16 on row 6
        High quality

KKT.PB: max.abs.err = 2.66e-15 on row 81
        max.rel.err = 4.75e-16 on row 81
        High quality

End of output
